3872352
13291563
13505441
13852411
18087513
23584851
24629299
37687399
39179741
55725927
58480617
63871479
66875924
69987933
77789840
82158301
89089434
100705996
109810314
110968972
118918165
131610477
145184323
159851757
160849192
162509052
172247656
175597999
181052632
192936838
193894191
222816188
229529031
246688573
262257533
276809866
278353240
280470075
287280219
297084117
311747045
318719016
330759564
330941146
344818828
349613261
355556999
374297939
395480246
402504411
404918065
411593038
414711426
436851559
441206628
445977449
467403989
476268946
483724803
494419332
495049145
496793886
504451712
526667534
541257141
543810548
559551646
565788172
569644291
585409872
595912323
596344048
616961756
617283575
646227016
647871394
657771664
666239134
687126914
690839335
691796003
695942852
700589139
744759813
755705774
756466619
763738853
768894341
775923550
782216190
790392284
817344256
817767038
821853906
830717334
831916677
836769617
845874133
861296929
861616956
863999988
873790779
879553246
887708573
896213262
898162722
904000918
909935131
931663624
949960284
955793173
956711521
964317475
966222938
969875075
970630933
974597782
979030905
981167952
984289615
984589315
995179536
1036012805
1040221096
1044130649
1050200775
1051183630
1055630958
1071657455
1072039186
1075498619
1083179900
1083203327
1094949004
1102159366
1114702482
1116310735
1118638677
1131656467
1146424196
1149080111
1149443662
1162404376
1162866612
1175625017
1177782594
1185588114
1186127278
1196451581
1197766794
1205867760
1217474995
1221245594
1222715339
1224141153
1244373711
1249678544
1254241191
1265828241
1267931100
1270468319
1284021352
1292892666
1304520782
1305263545
1311252764
1336260406
1339348025
1345699584
1350560906
1352212767
1364365966
1376396569
1380605539
1397372780
1397788022
1414426431
1414610458
1419162753
1419482624
1419694234
1431168746
1432922606
1445926195
1446257766
1464463595
1466950277
1478976331
1491206359
1501718903
1509197110
1510993493
1515450587
1527350246
1527412194
1531267145
1531408040
1535580561
1538636030
1538716323
1544168995
1544877159
1551221815
1556210280
1558041302
1580570664
1592670603
1596352688
1603034663
1603251530
1606743499
1606940317
1608157400
1611799979
1612117395
1619268934
1622146103
1630673665
1631709366
1652898873
1665604257
1668249537
1672095480
1678016596
1690335900
1690611523
1691864367
1695371887
1696648494
1698871087
1711291415
1717927542
1724796870
1750957724
1751014279
1764670498
1767647116
1778402187
1779943638
1780221321
1785853834
1795766826
1798986912
1800279649
1805179077
1806801808
1812466372
1815953498
1826543845
1831520282
1843473937
1854068888
1870537434
1893309114
1894093555
1909886029
1927483522
1927598797
1932029710
1932964620
1933254159
1933951268
1934600381
1938821052
1939595593
1969805470
1972136159
1984918180
2005575331
2019651998
2026167406
2034241390
2036885027
2043621035
2061632267
2065141700
2066944180
2067338755
2105741432
2108479646
2113195675
2113486026
2124436961
2139345319
2143566401
2148887975
2149302953
2149390052
2152052224
2155455268
2155533080
2159364897
2160633926
2171712442
2175014833
2175555707
2186298170
2186345974
2190154518
2196706050
2200018894
2200568471
2207577610
2217092204
2217454122
2217970584
2221634338
2230102163
2238390410
2257610071
2275468940
2279077105
2281728834
2292740583
2295826092
2308394380
2309263202
2310850718
2320927971
2325762287
2339181073
2340486744
2349553377
2350446827
2368550466
2373622971
2375692896
2386450571
2391093262
2409101596
2422610491
2426758880
2433804212
2442329552
2469288008
2479381796
2485490817
2485706760
2491199292
2498427926
2511093695
2515066280
2516450152
2518956319
2525813005
2532895400
2537341537
2540954578
2549165726
2566257038
2568636099
2582616557
2584511367
2584889689
2587289983
2591703729
2600791923
2610154806
2623433727
2629779879
2648821816
2650049064
2667270055
2667956907
2688779174
2691280918
2714513877
2716344981
2720214545
2732053950
2739186263
2753506156
2762962130
2767177681
2769328874
2777181287
2777428392
2783698784
2784244169
2792499633
2795232963
2797952726
2814111377
2824807123
2831159470
2840186720
2841751077
2849462269
2855303320
2859108863
2866436124
2867239792
2871409078
2875688216
2877150128
2887809479
2896107257
2901887325
2915757625
2917116363
2918511145
2930118884
2936791360
2950733971
2960042970
2964903710
2967732658
2976030664
2976952963
2981397237
2997746871
3001187684
3001534175
3005978711
3017169821
3027088268
3027661323
3036857942
3040538880
3044272298
3045473879
3053627809
3057334702
3068137315
3078521560
3117272100
3130784969
3131310308
3133368534
3139787725
3151698973
3158622418
3163881789
3164777900
3167169891
3175778902
3180908033
3182034732
3189715771
3192959663
3197484780
3197561244
3200443961
3204565924
3210695058
3215334761
3216323952
3231172464
3236182084
3237983242
3238860924
3290026040
3296005900
3298096823
3299754585
3311923916
3320434687
3341569548
3351762572
3355266176
3359236046
3362325363
3364072995
3367527797
3370658283
3385409011
3385409071
3385546574
3388058409
3395646536
3402452603
3413679926
3425180313
3434883183
3435960514
3449678805
3450327289
3461399406
3462226167
3480800674
3485038435
3497671393
3498750875
3510928916
3511811292
3512036078
3527846966
3537700596
3548646044
3551001385
3551698516
3559422209
3565780815
3575820255
3576447909
3576485737
3581570960
3585468444
3600478215
3624859189
3633675392
3639135852
3644338714
3668436310
3675768816
3681071763
3684010224
3695614773
3703288509
3705636992
3710345830
3717753394
3717822886
3718894623
3720790529
3729648896
3732335165
3737018027
3738546212
3749143464
3753151537
3761868012
3786721368
3789028843
3801724791
3801927689
3856453231
3864607255
3866693284
3880917351
3881627149
3887818477
3896073498
3907694682
3912895707
3921381452
3923136939
3931142006
3947303511
3947362989
3950370747
3955862219
3956618432
3962411617
3965986463
3968242089
3975569787
3986725134
3986812783
3992042987
4001218754
4004441528
4008628272
4015050506
4029814915
4032964306
4036368348
4037863321
4040189182
4041010034
4043639037
4045069057
4047841795
4060347737
4064209811
4065777208
4069786784
4069837820
4088179355
4094955116
4094997137
4095075752
4102393270
4121330983
4124456443
4145631081
4148684738
4154187128
4164856197
4172294648
4178606008
4186437367
4186439460
4194296682
4195243865
4196887253
4197115709
4202530966
4204674074
4212971454
4247283051
4252646805
4255436775
4259113861
4262343427
4268363562
4278454033
4285846350
4292478817
